c FILE: myciel7.col
c SOURCE: Michael Trick (trick@cmu.edu)
c DESCRIPTION: Graph based on Mycielski transformation. 
c              Triangle free (clique number 2) but increasing
c              coloring number
p edge 191 2360
e 1 2
e 1 4
e 1 7
e 1 9
e 1 13
e 1 15
e 1 18
e 1 20
e 1 25
e 1 27
e 1 30
e 1 32
e 1 36
e 1 38
e 1 41
e 1 43
e 1 49
e 1 51
e 1 54
e 1 56
e 1 60
e 1 62
e 1 65
e 1 67
e 1 72
e 1 74
e 1 77
e 1 79
e 1 83
e 1 85
e 1 88
e 1 90
e 1 97
e 1 99
e 1 102
e 1 104
e 1 108
e 1 110
e 1 113
e 1 115
e 1 120
e 1 122
e 1 125
e 1 127
e 1 131
e 1 133
e 1 136
e 1 138
e 1 144
e 1 146
e 1 149
e 1 151
e 1 155
e 1 157
e 1 160
e 1 162
e 1 167
e 1 169
e 1 172
e 1 174
e 1 178
e 1 180
e 1 183
e 1 185
e 2 3
e 2 6
e 2 8
e 2 12
e 2 14
e 2 17
e 2 19
e 2 24
e 2 26
e 2 29
e 2 31
e 2 35
e 2 37
e 2 40
e 2 42
e 2 48
e 2 50
e 2 53
e 2 55
e 2 59
e 2 61
e 2 64
e 2 66
e 2 71
e 2 73
e 2 76
e 2 78
e 2 82
e 2 84
e 2 87
e 2 89
e 2 96
e 2 98
e 2 101
e 2 103
e 2 107
e 2 109
e 2 112
e 2 114
e 2 119
e 2 121
e 2 124
e 2 126
e 2 130
e 2 132
e 2 135
e 2 137
e 2 143
e 2 145
e 2 148
e 2 150
e 2 154
e 2 156
e 2 159
e 2 161
e 2 166
e 2 168
e 2 171
e 2 173
e 2 177
e 2 179
e 2 182
e 2 184
e 3 5
e 3 7
e 3 10
e 3 13
e 3 16
e 3 18
e 3 21
e 3 25
e 3 28
e 3 30
e 3 33
e 3 36
e 3 39
e 3 41
e 3 44
e 3 49
e 3 52
e 3 54
e 3 57
e 3 60
e 3 63
e 3 65
e 3 68
e 3 72
e 3 75
e 3 77
e 3 80
e 3 83
e 3 86
e 3 88
e 3 91
e 3 97
e 3 100
e 3 102
e 3 105
e 3 108
e 3 111
e 3 113
e 3 116
e 3 120
e 3 123
e 3 125
e 3 128
e 3 131
e 3 134
e 3 136
e 3 139
e 3 144
e 3 147
e 3 149
e 3 152
e 3 155
e 3 158
e 3 160
e 3 163
e 3 167
e 3 170
e 3 172
e 3 175
e 3 178
e 3 181
e 3 183
e 3 186
e 4 5
e 4 6
e 4 10
e 4 12
e 4 16
e 4 17
e 4 21
e 4 24
e 4 28
e 4 29
e 4 33
e 4 35
e 4 39
e 4 40
e 4 44
e 4 48
e 4 52
e 4 53
e 4 57
e 4 59
e 4 63
e 4 64
e 4 68
e 4 71
e 4 75
e 4 76
e 4 80
e 4 82
e 4 86
e 4 87
e 4 91
e 4 96
e 4 100
e 4 101
e 4 105
e 4 107
e 4 111
e 4 112
e 4 116
e 4 119
e 4 123
e 4 124
e 4 128
e 4 130
e 4 134
e 4 135
e 4 139
e 4 143
e 4 147
e 4 148
e 4 152
e 4 154
e 4 158
e 4 159
e 4 163
e 4 166
e 4 170
e 4 171
e 4 175
e 4 177
e 4 181
e 4 182
e 4 186
e 5 8
e 5 9
e 5 14
e 5 15
e 5 19
e 5 20
e 5 26
e 5 27
e 5 31
e 5 32
e 5 37
e 5 38
e 5 42
e 5 43
e 5 50
e 5 51
e 5 55
e 5 56
e 5 61
e 5 62
e 5 66
e 5 67
e 5 73
e 5 74
e 5 78
e 5 79
e 5 84
e 5 85
e 5 89
e 5 90
e 5 98
e 5 99
e 5 103
e 5 104
e 5 109
e 5 110
e 5 114
e 5 115
e 5 121
e 5 122
e 5 126
e 5 127
e 5 132
e 5 133
e 5 137
e 5 138
e 5 145
e 5 146
e 5 150
e 5 151
e 5 156
e 5 157
e 5 161
e 5 162
e 5 168
e 5 169
e 5 173
e 5 174
e 5 179
e 5 180
e 5 184
e 5 185
e 6 11
e 6 13
e 6 15
e 6 22
e 6 25
e 6 27
e 6 34
e 6 36
e 6 38
e 6 45
e 6 49
e 6 51
e 6 58
e 6 60
e 6 62
e 6 69
e 6 72
e 6 74
e 6 81
e 6 83
e 6 85
e 6 92
e 6 97
e 6 99
e 6 106
e 6 108
e 6 110
e 6 117
e 6 120
e 6 122
e 6 129
e 6 131
e 6 133
e 6 140
e 6 144
e 6 146
e 6 153
e 6 155
e 6 157
e 6 164
e 6 167
e 6 169
e 6 176
e 6 178
e 6 180
e 6 187
e 7 11
e 7 12
e 7 14
e 7 22
e 7 24
e 7 26
e 7 34
e 7 35
e 7 37
e 7 45
e 7 48
e 7 50
e 7 58
e 7 59
e 7 61
e 7 69
e 7 71
e 7 73
e 7 81
e 7 82
e 7 84
e 7 92
e 7 96
e 7 98
e 7 106
e 7 107
e 7 109
e 7 117
e 7 119
e 7 121
e 7 129
e 7 130
e 7 132
e 7 140
e 7 143
e 7 145
e 7 153
e 7 154
e 7 156
e 7 164
e 7 166
e 7 168
e 7 176
e 7 177
e 7 179
e 7 187
e 8 11
e 8 13
e 8 16
e 8 22
e 8 25
e 8 28
e 8 34
e 8 36
e 8 39
e 8 45
e 8 49
e 8 52
e 8 58
e 8 60
e 8 63
e 8 69
e 8 72
e 8 75
e 8 81
e 8 83
e 8 86
e 8 92
e 8 97
e 8 100
e 8 106
e 8 108
e 8 111
e 8 117
e 8 120
e 8 123
e 8 129
e 8 131
e 8 134
e 8 140
e 8 144
e 8 147
e 8 153
e 8 155
e 8 158
e 8 164
e 8 167
e 8 170
e 8 176
e 8 178
e 8 181
e 8 187
e 9 11
e 9 12
e 9 16
e 9 22
e 9 24
e 9 28
e 9 34
e 9 35
e 9 39
e 9 45
e 9 48
e 9 52
e 9 58
e 9 59
e 9 63
e 9 69
e 9 71
e 9 75
e 9 81
e 9 82
e 9 86
e 9 92
e 9 96
e 9 100
e 9 106
e 9 107
e 9 111
e 9 117
e 9 119
e 9 123
e 9 129
e 9 130
e 9 134
e 9 140
e 9 143
e 9 147
e 9 153
e 9 154
e 9 158
e 9 164
e 9 166
e 9 170
e 9 176
e 9 177
e 9 181
e 9 187
e 10 11
e 10 14
e 10 15
e 10 22
e 10 26
e 10 27
e 10 34
e 10 37
e 10 38
e 10 45
e 10 50
e 10 51
e 10 58
e 10 61
e 10 62
e 10 69
e 10 73
e 10 74
e 10 81
e 10 84
e 10 85
e 10 92
e 10 98
e 10 99
e 10 106
e 10 109
e 10 110
e 10 117
e 10 121
e 10 122
e 10 129
e 10 132
e 10 133
e 10 140
e 10 145
e 10 146
e 10 153
e 10 156
e 10 157
e 10 164
e 10 168
e 10 169
e 10 176
e 10 179
e 10 180
e 10 187
e 11 17
e 11 18
e 11 19
e 11 20
e 11 21
e 11 29
e 11 30
e 11 31
e 11 32
e 11 33
e 11 40
e 11 41
e 11 42
e 11 43
e 11 44
e 11 53
e 11 54
e 11 55
e 11 56
e 11 57
e 11 64
e 11 65
e 11 66
e 11 67
e 11 68
e 11 76
e 11 77
e 11 78
e 11 79
e 11 80
e 11 87
e 11 88
e 11 89
e 11 90
e 11 91
e 11 101
e 11 102
e 11 103
e 11 104
e 11 105
e 11 112
e 11 113
e 11 114
e 11 115
e 11 116
e 11 124
e 11 125
e 11 126
e 11 127
e 11 128
e 11 135
e 11 136
e 11 137
e 11 138
e 11 139
e 11 148
e 11 149
e 11 150
e 11 151
e 11 152
e 11 159
e 11 160
e 11 161
e 11 162
e 11 163
e 11 171
e 11 172
e 11 173
e 11 174
e 11 175
e 11 182
e 11 183
e 11 184
e 11 185
e 11 186
e 12 23
e 12 25
e 12 27
e 12 30
e 12 32
e 12 46
e 12 49
e 12 51
e 12 54
e 12 56
e 12 70
e 12 72
e 12 74
e 12 77
e 12 79
e 12 93
e 12 97
e 12 99
e 12 102
e 12 104
e 12 118
e 12 120
e 12 122
e 12 125
e 12 127
e 12 141
e 12 144
e 12 146
e 12 149
e 12 151
e 12 165
e 12 167
e 12 169
e 12 172
e 12 174
e 12 188
e 13 23
e 13 24
e 13 26
e 13 29
e 13 31
e 13 46
e 13 48
e 13 50
e 13 53
e 13 55
e 13 70
e 13 71
e 13 73
e 13 76
e 13 78
e 13 93
e 13 96
e 13 98
e 13 101
e 13 103
e 13 118
e 13 119
e 13 121
e 13 124
e 13 126
e 13 141
e 13 143
e 13 145
e 13 148
e 13 150
e 13 165
e 13 166
e 13 168
e 13 171
e 13 173
e 13 188
e 14 23
e 14 25
e 14 28
e 14 30
e 14 33
e 14 46
e 14 49
e 14 52
e 14 54
e 14 57
e 14 70
e 14 72
e 14 75
e 14 77
e 14 80
e 14 93
e 14 97
e 14 100
e 14 102
e 14 105
e 14 118
e 14 120
e 14 123
e 14 125
e 14 128
e 14 141
e 14 144
e 14 147
e 14 149
e 14 152
e 14 165
e 14 167
e 14 170
e 14 172
e 14 175
e 14 188
e 15 23
e 15 24
e 15 28
e 15 29
e 15 33
e 15 46
e 15 48
e 15 52
e 15 53
e 15 57
e 15 70
e 15 71
e 15 75
e 15 76
e 15 80
e 15 93
e 15 96
e 15 100
e 15 101
e 15 105
e 15 118
e 15 119
e 15 123
e 15 124
e 15 128
e 15 141
e 15 143
e 15 147
e 15 148
e 15 152
e 15 165
e 15 166
e 15 170
e 15 171
e 15 175
e 15 188
e 16 23
e 16 26
e 16 27
e 16 31
e 16 32
e 16 46
e 16 50
e 16 51
e 16 55
e 16 56
e 16 70
e 16 73
e 16 74
e 16 78
e 16 79
e 16 93
e 16 98
e 16 99
e 16 103
e 16 104
e 16 118
e 16 121
e 16 122
e 16 126
e 16 127
e 16 141
e 16 145
e 16 146
e 16 150
e 16 151
e 16 165
e 16 168
e 16 169
e 16 173
e 16 174
e 16 188
e 17 23
e 17 25
e 17 27
e 17 34
e 17 46
e 17 49
e 17 51
e 17 58
e 17 70
e 17 72
e 17 74
e 17 81
e 17 93
e 17 97
e 17 99
e 17 106
e 17 118
e 17 120
e 17 122
e 17 129
e 17 141
e 17 144
e 17 146
e 17 153
e 17 165
e 17 167
e 17 169
e 17 176
e 17 188
e 18 23
e 18 24
e 18 26
e 18 34
e 18 46
e 18 48
e 18 50
e 18 58
e 18 70
e 18 71
e 18 73
e 18 81
e 18 93
e 18 96
e 18 98
e 18 106
e 18 118
e 18 119
e 18 121
e 18 129
e 18 141
e 18 143
e 18 145
e 18 153
e 18 165
e 18 166
e 18 168
e 18 176
e 18 188
e 19 23
e 19 25
e 19 28
e 19 34
e 19 46
e 19 49
e 19 52
e 19 58
e 19 70
e 19 72
e 19 75
e 19 81
e 19 93
e 19 97
e 19 100
e 19 106
e 19 118
e 19 120
e 19 123
e 19 129
e 19 141
e 19 144
e 19 147
e 19 153
e 19 165
e 19 167
e 19 170
e 19 176
e 19 188
e 20 23
e 20 24
e 20 28
e 20 34
e 20 46
e 20 48
e 20 52
e 20 58
e 20 70
e 20 71
e 20 75
e 20 81
e 20 93
e 20 96
e 20 100
e 20 106
e 20 118
e 20 119
e 20 123
e 20 129
e 20 141
e 20 143
e 20 147
e 20 153
e 20 165
e 20 166
e 20 170
e 20 176
e 20 188
e 21 23
e 21 26
e 21 27
e 21 34
e 21 46
e 21 50
e 21 51
e 21 58
e 21 70
e 21 73
e 21 74
e 21 81
e 21 93
e 21 98
e 21 99
e 21 106
e 21 118
e 21 121
e 21 122
e 21 129
e 21 141
e 21 145
e 21 146
e 21 153
e 21 165
e 21 168
e 21 169
e 21 176
e 21 188
e 22 23
e 22 29
e 22 30
e 22 31
e 22 32
e 22 33
e 22 46
e 22 53
e 22 54
e 22 55
e 22 56
e 22 57
e 22 70
e 22 76
e 22 77
e 22 78
e 22 79
e 22 80
e 22 93
e 22 101
e 22 102
e 22 103
e 22 104
e 22 105
e 22 118
e 22 124
e 22 125
e 22 126
e 22 127
e 22 128
e 22 141
e 22 148
e 22 149
e 22 150
e 22 151
e 22 152
e 22 165
e 22 171
e 22 172
e 22 173
e 22 174
e 22 175
e 22 188
e 23 35
e 23 36
e 23 37
e 23 38
e 23 39
e 23 40
e 23 41
e 23 42
e 23 43
e 23 44
e 23 45
e 23 59
e 23 60
e 23 61
e 23 62
e 23 63
e 23 64
e 23 65
e 23 66
e 23 67
e 23 68
e 23 69
e 23 82
e 23 83
e 23 84
e 23 85
e 23 86
e 23 87
e 23 88
e 23 89
e 23 90
e 23 91
e 23 92
e 23 107
e 23 108
e 23 109
e 23 110
e 23 111
e 23 112
e 23 113
e 23 114
e 23 115
e 23 116
e 23 117
e 23 130
e 23 131
e 23 132
e 23 133
e 23 134
e 23 135
e 23 136
e 23 137
e 23 138
e 23 139
e 23 140
e 23 154
e 23 155
e 23 156
e 23 157
e 23 158
e 23 159
e 23 160
e 23 161
e 23 162
e 23 163
e 23 164
e 23 177
e 23 178
e 23 179
e 23 180
e 23 181
e 23 182
e 23 183
e 23 184
e 23 185
e 23 186
e 23 187
e 24 47
e 24 49
e 24 51
e 24 54
e 24 56
e 24 60
e 24 62
e 24 65
e 24 67
e 24 94
e 24 97
e 24 99
e 24 102
e 24 104
e 24 108
e 24 110
e 24 113
e 24 115
e 24 142
e 24 144
e 24 146
e 24 149
e 24 151
e 24 155
e 24 157
e 24 160
e 24 162
e 24 189
e 25 47
e 25 48
e 25 50
e 25 53
e 25 55
e 25 59
e 25 61
e 25 64
e 25 66
e 25 94
e 25 96
e 25 98
e 25 101
e 25 103
e 25 107
e 25 109
e 25 112
e 25 114
e 25 142
e 25 143
e 25 145
e 25 148
e 25 150
e 25 154
e 25 156
e 25 159
e 25 161
e 25 189
e 26 47
e 26 49
e 26 52
e 26 54
e 26 57
e 26 60
e 26 63
e 26 65
e 26 68
e 26 94
e 26 97
e 26 100
e 26 102
e 26 105
e 26 108
e 26 111
e 26 113
e 26 116
e 26 142
e 26 144
e 26 147
e 26 149
e 26 152
e 26 155
e 26 158
e 26 160
e 26 163
e 26 189
e 27 47
e 27 48
e 27 52
e 27 53
e 27 57
e 27 59
e 27 63
e 27 64
e 27 68
e 27 94
e 27 96
e 27 100
e 27 101
e 27 105
e 27 107
e 27 111
e 27 112
e 27 116
e 27 142
e 27 143
e 27 147
e 27 148
e 27 152
e 27 154
e 27 158
e 27 159
e 27 163
e 27 189
e 28 47
e 28 50
e 28 51
e 28 55
e 28 56
e 28 61
e 28 62
e 28 66
e 28 67
e 28 94
e 28 98
e 28 99
e 28 103
e 28 104
e 28 109
e 28 110
e 28 114
e 28 115
e 28 142
e 28 145
e 28 146
e 28 150
e 28 151
e 28 156
e 28 157
e 28 161
e 28 162
e 28 189
e 29 47
e 29 49
e 29 51
e 29 58
e 29 60
e 29 62
e 29 69
e 29 94
e 29 97
e 29 99
e 29 106
e 29 108
e 29 110
e 29 117
e 29 142
e 29 144
e 29 146
e 29 153
e 29 155
e 29 157
e 29 164
e 29 189
e 30 47
e 30 48
e 30 50
e 30 58
e 30 59
e 30 61
e 30 69
e 30 94
e 30 96
e 30 98
e 30 106
e 30 107
e 30 109
e 30 117
e 30 142
e 30 143
e 30 145
e 30 153
e 30 154
e 30 156
e 30 164
e 30 189
e 31 47
e 31 49
e 31 52
e 31 58
e 31 60
e 31 63
e 31 69
e 31 94
e 31 97
e 31 100
e 31 106
e 31 108
e 31 111
e 31 117
e 31 142
e 31 144
e 31 147
e 31 153
e 31 155
e 31 158
e 31 164
e 31 189
e 32 47
e 32 48
e 32 52
e 32 58
e 32 59
e 32 63
e 32 69
e 32 94
e 32 96
e 32 100
e 32 106
e 32 107
e 32 111
e 32 117
e 32 142
e 32 143
e 32 147
e 32 153
e 32 154
e 32 158
e 32 164
e 32 189
e 33 47
e 33 50
e 33 51
e 33 58
e 33 61
e 33 62
e 33 69
e 33 94
e 33 98
e 33 99
e 33 106
e 33 109
e 33 110
e 33 117
e 33 142
e 33 145
e 33 146
e 33 153
e 33 156
e 33 157
e 33 164
e 33 189
e 34 47
e 34 53
e 34 54
e 34 55
e 34 56
e 34 57
e 34 64
e 34 65
e 34 66
e 34 67
e 34 68
e 34 94
e 34 101
e 34 102
e 34 103
e 34 104
e 34 105
e 34 112
e 34 113
e 34 114
e 34 115
e 34 116
e 34 142
e 34 148
e 34 149
e 34 150
e 34 151
e 34 152
e 34 159
e 34 160
e 34 161
e 34 162
e 34 163
e 34 189
e 35 47
e 35 49
e 35 51
e 35 54
e 35 56
e 35 70
e 35 94
e 35 97
e 35 99
e 35 102
e 35 104
e 35 118
e 35 142
e 35 144
e 35 146
e 35 149
e 35 151
e 35 165
e 35 189
e 36 47
e 36 48
e 36 50
e 36 53
e 36 55
e 36 70
e 36 94
e 36 96
e 36 98
e 36 101
e 36 103
e 36 118
e 36 142
e 36 143
e 36 145
e 36 148
e 36 150
e 36 165
e 36 189
e 37 47
e 37 49
e 37 52
e 37 54
e 37 57
e 37 70
e 37 94
e 37 97
e 37 100
e 37 102
e 37 105
e 37 118
e 37 142
e 37 144
e 37 147
e 37 149
e 37 152
e 37 165
e 37 189
e 38 47
e 38 48
e 38 52
e 38 53
e 38 57
e 38 70
e 38 94
e 38 96
e 38 100
e 38 101
e 38 105
e 38 118
e 38 142
e 38 143
e 38 147
e 38 148
e 38 152
e 38 165
e 38 189
e 39 47
e 39 50
e 39 51
e 39 55
e 39 56
e 39 70
e 39 94
e 39 98
e 39 99
e 39 103
e 39 104
e 39 118
e 39 142
e 39 145
e 39 146
e 39 150
e 39 151
e 39 165
e 39 189
e 40 47
e 40 49
e 40 51
e 40 58
e 40 70
e 40 94
e 40 97
e 40 99
e 40 106
e 40 118
e 40 142
e 40 144
e 40 146
e 40 153
e 40 165
e 40 189
e 41 47
e 41 48
e 41 50
e 41 58
e 41 70
e 41 94
e 41 96
e 41 98
e 41 106
e 41 118
e 41 142
e 41 143
e 41 145
e 41 153
e 41 165
e 41 189
e 42 47
e 42 49
e 42 52
e 42 58
e 42 70
e 42 94
e 42 97
e 42 100
e 42 106
e 42 118
e 42 142
e 42 144
e 42 147
e 42 153
e 42 165
e 42 189
e 43 47
e 43 48
e 43 52
e 43 58
e 43 70
e 43 94
e 43 96
e 43 100
e 43 106
e 43 118
e 43 142
e 43 143
e 43 147
e 43 153
e 43 165
e 43 189
e 44 47
e 44 50
e 44 51
e 44 58
e 44 70
e 44 94
e 44 98
e 44 99
e 44 106
e 44 118
e 44 142
e 44 145
e 44 146
e 44 153
e 44 165
e 44 189
e 45 47
e 45 53
e 45 54
e 45 55
e 45 56
e 45 57
e 45 70
e 45 94
e 45 101
e 45 102
e 45 103
e 45 104
e 45 105
e 45 118
e 45 142
e 45 148
e 45 149
e 45 150
e 45 151
e 45 152
e 45 165
e 45 189
e 46 47
e 46 59
e 46 60
e 46 61
e 46 62
e 46 63
e 46 64
e 46 65
e 46 66
e 46 67
e 46 68
e 46 69
e 46 94
e 46 107
e 46 108
e 46 109
e 46 110
e 46 111
e 46 112
e 46 113
e 46 114
e 46 115
e 46 116
e 46 117
e 46 142
e 46 154
e 46 155
e 46 156
e 46 157
e 46 158
e 46 159
e 46 160
e 46 161
e 46 162
e 46 163
e 46 164
e 46 189
e 47 71
e 47 72
e 47 73
e 47 74
e 47 75
e 47 76
e 47 77
e 47 78
e 47 79
e 47 80
e 47 81
e 47 82
e 47 83
e 47 84
e 47 85
e 47 86
e 47 87
e 47 88
e 47 89
e 47 90
e 47 91
e 47 92
e 47 93
e 47 119
e 47 120
e 47 121
e 47 122
e 47 123
e 47 124
e 47 125
e 47 126
e 47 127
e 47 128
e 47 129
e 47 130
e 47 131
e 47 132
e 47 133
e 47 134
e 47 135
e 47 136
e 47 137
e 47 138
e 47 139
e 47 140
e 47 141
e 47 166
e 47 167
e 47 168
e 47 169
e 47 170
e 47 171
e 47 172
e 47 173
e 47 174
e 47 175
e 47 176
e 47 177
e 47 178
e 47 179
e 47 180
e 47 181
e 47 182
e 47 183
e 47 184
e 47 185
e 47 186
e 47 187
e 47 188
e 48 95
e 48 97
e 48 99
e 48 102
e 48 104
e 48 108
e 48 110
e 48 113
e 48 115
e 48 120
e 48 122
e 48 125
e 48 127
e 48 131
e 48 133
e 48 136
e 48 138
e 48 190
e 49 95
e 49 96
e 49 98
e 49 101
e 49 103
e 49 107
e 49 109
e 49 112
e 49 114
e 49 119
e 49 121
e 49 124
e 49 126
e 49 130
e 49 132
e 49 135
e 49 137
e 49 190
e 50 95
e 50 97
e 50 100
e 50 102
e 50 105
e 50 108
e 50 111
e 50 113
e 50 116
e 50 120
e 50 123
e 50 125
e 50 128
e 50 131
e 50 134
e 50 136
e 50 139
e 50 190
e 51 95
e 51 96
e 51 100
e 51 101
e 51 105
e 51 107
e 51 111
e 51 112
e 51 116
e 51 119
e 51 123
e 51 124
e 51 128
e 51 130
e 51 134
e 51 135
e 51 139
e 51 190
e 52 95
e 52 98
e 52 99
e 52 103
e 52 104
e 52 109
e 52 110
e 52 114
e 52 115
e 52 121
e 52 122
e 52 126
e 52 127
e 52 132
e 52 133
e 52 137
e 52 138
e 52 190
e 53 95
e 53 97
e 53 99
e 53 106
e 53 108
e 53 110
e 53 117
e 53 120
e 53 122
e 53 129
e 53 131
e 53 133
e 53 140
e 53 190
e 54 95
e 54 96
e 54 98
e 54 106
e 54 107
e 54 109
e 54 117
e 54 119
e 54 121
e 54 129
e 54 130
e 54 132
e 54 140
e 54 190
e 55 95
e 55 97
e 55 100
e 55 106
e 55 108
e 55 111
e 55 117
e 55 120
e 55 123
e 55 129
e 55 131
e 55 134
e 55 140
e 55 190
e 56 95
e 56 96
e 56 100
e 56 106
e 56 107
e 56 111
e 56 117
e 56 119
e 56 123
e 56 129
e 56 130
e 56 134
e 56 140
e 56 190
e 57 95
e 57 98
e 57 99
e 57 106
e 57 109
e 57 110
e 57 117
e 57 121
e 57 122
e 57 129
e 57 132
e 57 133
e 57 140
e 57 190
e 58 95
e 58 101
e 58 102
e 58 103
e 58 104
e 58 105
e 58 112
e 58 113
e 58 114
e 58 115
e 58 116
e 58 124
e 58 125
e 58 126
e 58 127
e 58 128
e 58 135
e 58 136
e 58 137
e 58 138
e 58 139
e 58 190
e 59 95
e 59 97
e 59 99
e 59 102
e 59 104
e 59 118
e 59 120
e 59 122
e 59 125
e 59 127
e 59 141
e 59 190
e 60 95
e 60 96
e 60 98
e 60 101
e 60 103
e 60 118
e 60 119
e 60 121
e 60 124
e 60 126
e 60 141
e 60 190
e 61 95
e 61 97
e 61 100
e 61 102
e 61 105
e 61 118
e 61 120
e 61 123
e 61 125
e 61 128
e 61 141
e 61 190
e 62 95
e 62 96
e 62 100
e 62 101
e 62 105
e 62 118
e 62 119
e 62 123
e 62 124
e 62 128
e 62 141
e 62 190
e 63 95
e 63 98
e 63 99
e 63 103
e 63 104
e 63 118
e 63 121
e 63 122
e 63 126
e 63 127
e 63 141
e 63 190
e 64 95
e 64 97
e 64 99
e 64 106
e 64 118
e 64 120
e 64 122
e 64 129
e 64 141
e 64 190
e 65 95
e 65 96
e 65 98
e 65 106
e 65 118
e 65 119
e 65 121
e 65 129
e 65 141
e 65 190
e 66 95
e 66 97
e 66 100
e 66 106
e 66 118
e 66 120
e 66 123
e 66 129
e 66 141
e 66 190
e 67 95
e 67 96
e 67 100
e 67 106
e 67 118
e 67 119
e 67 123
e 67 129
e 67 141
e 67 190
e 68 95
e 68 98
e 68 99
e 68 106
e 68 118
e 68 121
e 68 122
e 68 129
e 68 141
e 68 190
e 69 95
e 69 101
e 69 102
e 69 103
e 69 104
e 69 105
e 69 118
e 69 124
e 69 125
e 69 126
e 69 127
e 69 128
e 69 141
e 69 190
e 70 95
e 70 107
e 70 108
e 70 109
e 70 110
e 70 111
e 70 112
e 70 113
e 70 114
e 70 115
e 70 116
e 70 117
e 70 130
e 70 131
e 70 132
e 70 133
e 70 134
e 70 135
e 70 136
e 70 137
e 70 138
e 70 139
e 70 140
e 70 190
e 71 95
e 71 97
e 71 99
e 71 102
e 71 104
e 71 108
e 71 110
e 71 113
e 71 115
e 71 142
e 71 190
e 72 95
e 72 96
e 72 98
e 72 101
e 72 103
e 72 107
e 72 109
e 72 112
e 72 114
e 72 142
e 72 190
e 73 95
e 73 97
e 73 100
e 73 102
e 73 105
e 73 108
e 73 111
e 73 113
e 73 116
e 73 142
e 73 190
e 74 95
e 74 96
e 74 100
e 74 101
e 74 105
e 74 107
e 74 111
e 74 112
e 74 116
e 74 142
e 74 190
e 75 95
e 75 98
e 75 99
e 75 103
e 75 104
e 75 109
e 75 110
e 75 114
e 75 115
e 75 142
e 75 190
e 76 95
e 76 97
e 76 99
e 76 106
e 76 108
e 76 110
e 76 117
e 76 142
e 76 190
e 77 95
e 77 96
e 77 98
e 77 106
e 77 107
e 77 109
e 77 117
e 77 142
e 77 190
e 78 95
e 78 97
e 78 100
e 78 106
e 78 108
e 78 111
e 78 117
e 78 142
e 78 190
e 79 95
e 79 96
e 79 100
e 79 106
e 79 107
e 79 111
e 79 117
e 79 142
e 79 190
e 80 95
e 80 98
e 80 99
e 80 106
e 80 109
e 80 110
e 80 117
e 80 142
e 80 190
e 81 95
e 81 101
e 81 102
e 81 103
e 81 104
e 81 105
e 81 112
e 81 113
e 81 114
e 81 115
e 81 116
e 81 142
e 81 190
e 82 95
e 82 97
e 82 99
e 82 102
e 82 104
e 82 118
e 82 142
e 82 190
e 83 95
e 83 96
e 83 98
e 83 101
e 83 103
e 83 118
e 83 142
e 83 190
e 84 95
e 84 97
e 84 100
e 84 102
e 84 105
e 84 118
e 84 142
e 84 190
e 85 95
e 85 96
e 85 100
e 85 101
e 85 105
e 85 118
e 85 142
e 85 190
e 86 95
e 86 98
e 86 99
e 86 103
e 86 104
e 86 118
e 86 142
e 86 190
e 87 95
e 87 97
e 87 99
e 87 106
e 87 118
e 87 142
e 87 190
e 88 95
e 88 96
e 88 98
e 88 106
e 88 118
e 88 142
e 88 190
e 89 95
e 89 97
e 89 100
e 89 106
e 89 118
e 89 142
e 89 190
e 90 95
e 90 96
e 90 100
e 90 106
e 90 118
e 90 142
e 90 190
e 91 95
e 91 98
e 91 99
e 91 106
e 91 118
e 91 142
e 91 190
e 92 95
e 92 101
e 92 102
e 92 103
e 92 104
e 92 105
e 92 118
e 92 142
e 92 190
e 93 95
e 93 107
e 93 108
e 93 109
e 93 110
e 93 111
e 93 112
e 93 113
e 93 114
e 93 115
e 93 116
e 93 117
e 93 142
e 93 190
e 94 95
e 94 119
e 94 120
e 94 121
e 94 122
e 94 123
e 94 124
e 94 125
e 94 126
e 94 127
e 94 128
e 94 129
e 94 130
e 94 131
e 94 132
e 94 133
e 94 134
e 94 135
e 94 136
e 94 137
e 94 138
e 94 139
e 94 140
e 94 141
e 94 190
e 95 143
e 95 144
e 95 145
e 95 146
e 95 147
e 95 148
e 95 149
e 95 150
e 95 151
e 95 152
e 95 153
e 95 154
e 95 155
e 95 156
e 95 157
e 95 158
e 95 159
e 95 160
e 95 161
e 95 162
e 95 163
e 95 164
e 95 165
e 95 166
e 95 167
e 95 168
e 95 169
e 95 170
e 95 171
e 95 172
e 95 173
e 95 174
e 95 175
e 95 176
e 95 177
e 95 178
e 95 179
e 95 180
e 95 181
e 95 182
e 95 183
e 95 184
e 95 185
e 95 186
e 95 187
e 95 188
e 95 189
e 96 191
e 97 191
e 98 191
e 99 191
e 100 191
e 101 191
e 102 191
e 103 191
e 104 191
e 105 191
e 106 191
e 107 191
e 108 191
e 109 191
e 110 191
e 111 191
e 112 191
e 113 191
e 114 191
e 115 191
e 116 191
e 117 191
e 118 191
e 119 191
e 120 191
e 121 191
e 122 191
e 123 191
e 124 191
e 125 191
e 126 191
e 127 191
e 128 191
e 129 191
e 130 191
e 131 191
e 132 191
e 133 191
e 134 191
e 135 191
e 136 191
e 137 191
e 138 191
e 139 191
e 140 191
e 141 191
e 142 191
e 143 191
e 144 191
e 145 191
e 146 191
e 147 191
e 148 191
e 149 191
e 150 191
e 151 191
e 152 191
e 153 191
e 154 191
e 155 191
e 156 191
e 157 191
e 158 191
e 159 191
e 160 191
e 161 191
e 162 191
e 163 191
e 164 191
e 165 191
e 166 191
e 167 191
e 168 191
e 169 191
e 170 191
e 171 191
e 172 191
e 173 191
e 174 191
e 175 191
e 176 191
e 177 191
e 178 191
e 179 191
e 180 191
e 181 191
e 182 191
e 183 191
e 184 191
e 185 191
e 186 191
e 187 191
e 188 191
e 189 191
e 190 191
